Solver command line: ['C:\\gurobi1002\\win64\\bin\\gurobi.bat']

Set parameter Username
Academic license - for non-commercial use only - expires 2024-08-20
Read LP format model from file C:\Users\mhafeman\AppData\Local\Temp\tmprl0i7xp9.pyomo.lp
Reading time = 4.56 seconds
objective: 992593 rows, 931103 columns, 2485858 nonzeros
Set parameter TimeLimit to value 1800
Set parameter MIPGap to value 0.01
Gurobi Optimizer version 10.0.2 build v10.0.2rc0 (win64)

CPU model: AMD Ryzen 7 3800X 8-Core Processor, instruction set [SSE2|AVX|AVX2]
Thread count: 8 physical cores, 16 logical processors, using up to 16 threads

Optimize a model with 992593 rows, 931103 columns and 2485858 nonzeros
Model fingerprint: 0x21aa1130
Model has 17567 quadratic constraints
Variable types: 790560 continuous, 140543 integer (122976 binary)
Coefficient statistics:
  Matrix range     [1e-04, 3e+02]
  QMatrix range    [1e+00, 3e+00]
  QLMatrix range   [1e+00, 1e+00]
  Objective range  [1e-02, 4e+02]
  Bounds range     [1e+00, 3e+00]
  RHS range        [1e-03, 1e+04]
Presolve removed 808130 rows and 737857 columns (presolve time = 9s) ...
Presolve removed 790564 rows and 729074 columns
Presolve time: 8.89s
Presolved: 237165 rows, 210813 columns, 641226 nonzeros
Variable types: 122974 continuous, 87839 integer (87839 binary)
Deterministic concurrent LP optimizer: primal simplex, dual simplex, and barrier
Showing barrier log only...

Root barrier log...

Ordering time: 0.03s

Barrier statistics:
 AA' NZ     : 2.372e+05
 Factor NZ  : 6.370e+05 (roughly 80 MB of memory)
 Factor Ops : 4.619e+06 (less than 1 second per iteration)
 Threads    : 5

                  Objective                Residual
Iter       Primal          Dual         Primal    Dual     Compl     Time
   0   4.31185644e+08 -1.05619803e+10  3.72e+01 8.37e+02  1.03e+05    10s
   1   5.96792049e+07 -2.15994969e+09  6.03e-02 5.00e-12  9.21e+03    11s
   2   4.19981191e+07 -1.81671926e+08  6.85e-05 1.47e+00  9.21e+02    11s
   3   1.04667222e+07 -6.85235142e+07  6.73e-06 1.48e-12  3.25e+02    11s
   4   1.94975792e+06 -2.58356151e+07  3.00e-06 5.95e-01  1.14e+02    11s

Barrier performed 4 iterations in 10.72 seconds (7.50 work units)
Barrier solve interrupted - model solved by another algorithm

Concurrent spin time: 0.08s

Solved with dual simplex

Root simplex log...

Iteration    Objective       Primal Inf.    Dual Inf.      Time
   19202   -7.9658830e+06   0.000000e+00   0.000000e+00     11s

Use crossover to convert LP symmetric solution to basic solution...

Root crossover log...

   17074 DPushes remaining with DInf 0.0000000e+00                11s
       0 DPushes remaining with DInf 0.0000000e+00                11s

    3055 PPushes remaining with PInf 0.0000000e+00                11s
       0 PPushes remaining with PInf 0.0000000e+00                11s

  Push phase complete: Pinf 0.0000000e+00, Dinf 2.8382935e-10     11s


Root simplex log...

Iteration    Objective       Primal Inf.    Dual Inf.      Time
   39334   -7.9658830e+06   0.000000e+00   0.000000e+00     11s
   39334   -7.9658830e+06   0.000000e+00   0.000000e+00     11s

Root relaxation: objective -7.965883e+06, 39334 iterations, 1.58 seconds (1.31 work units)

    Nodes    |    Current Node    |     Objective Bounds      |     Work
 Expl Unexpl |  Obj  Depth IntInf | Incumbent    BestBd   Gap | It/Node Time

     0     0 -7965883.0    0  783          - -7965883.0      -     -   15s
H    0     0                    -7645866.949 -7965883.0  4.19%     -   16s
H    0     0                    -7646203.228 -7965883.0  4.18%     -   17s
     0     0 -7962945.6    0 1136 -7646203.2 -7962945.6  4.14%     -   20s
H    0     0                    -7689490.234 -7962945.6  3.56%     -   22s
     0     0 -7960098.7    0 1188 -7689490.2 -7960098.7  3.52%     -   22s
     0     0 -7960098.7    0 1189 -7689490.2 -7960098.7  3.52%     -   23s
     0     0 -7950500.7    0 1017 -7689490.2 -7950500.7  3.39%     -   25s
H    0     0                    -7747194.753 -7950500.7  2.62%     -   26s
H    0     0                    -7751556.174 -7950500.7  2.57%     -   26s
     0     0 -7948658.0    0  981 -7751556.2 -7948658.0  2.54%     -   27s
     0     0 -7948621.4    0  981 -7751556.2 -7948621.4  2.54%     -   27s
     0     0 -7944077.3    0  936 -7751556.2 -7944077.3  2.48%     -   31s
H    0     0                    -7763541.393 -7944077.3  2.33%     -   32s
     0     0 -7943207.5    0  922 -7763541.4 -7943207.5  2.31%     -   33s
     0     0 -7943095.7    0  931 -7763541.4 -7943095.7  2.31%     -   33s
     0     0 -7942021.3    0  949 -7763541.4 -7942021.3  2.30%     -   36s
H    0     0                    -7792530.264 -7942021.3  1.92%     -   38s
     0     0 -7941610.9    0  942 -7792530.3 -7941610.9  1.91%     -   38s
     0     0 -7941592.6    0  972 -7792530.3 -7941592.6  1.91%     -   38s
     0     0 -7941320.4    0  982 -7792530.3 -7941320.4  1.91%     -   39s
     0     0 -7941295.3    0  987 -7792530.3 -7941295.3  1.91%     -   41s
     0     0 -7941099.6    0  969 -7792530.3 -7941099.6  1.91%     -   42s
H    0     0                    -7792603.061 -7941099.6  1.91%     -   43s
     0     0 -7941081.3    0  981 -7792603.1 -7941081.3  1.91%     -   44s
     0     0 -7941010.5    0  980 -7792603.1 -7941010.5  1.90%     -   45s
     0     0 -7940997.0    0  984 -7792603.1 -7940997.0  1.90%     -   46s
     0     0 -7940754.9    0  980 -7792603.1 -7940754.9  1.90%     -   47s
     0     0 -7940754.9    0  864 -7792603.1 -7940754.9  1.90%     -   50s
H    0     0                    -7848548.741 -7940754.9  1.17%     -   55s
H    0     0                    -7853932.027 -7940754.9  1.11%     -   56s
H    0     2                    -7853937.646 -7940754.9  1.11%     -   66s
     0     2 -7940754.9    0  843 -7853937.6 -7940754.9  1.11%     -   66s
    15    24 -7940069.7    4  934 -7853937.6 -7940476.8  1.10%   179   70s
H   31    40                    -7856244.994 -7940476.8  1.07%  96.6   75s
H   32    40                    -7858422.785 -7940476.8  1.04%  93.7   75s
    63    88 -7939989.5    8  922 -7858422.8 -7940476.8  1.04%  49.9   83s
H   65    88                    -7867750.332 -7940476.8  0.92%  48.4   83s
H   71    88                    -7868451.508 -7940476.8  0.92%  44.6   83s

Cutting planes:
  Gomory: 70
  Lift-and-project: 19
  Cover: 196
  Implied bound: 38
  MIR: 772
  Flow cover: 437
  RLT: 24
  Relax-and-lift: 51

Explored 87 nodes (69329 simplex iterations) in 84.03 seconds (77.08 work units)
Thread count was 16 (of 16 available processors)

Solution count 10: -7.86845e+06 -7.86775e+06 -7.85842e+06 ... -7.76354e+06

Optimal solution found (tolerance 1.00e-02)
Best objective -7.868451508143e+06, best bound -7.940476760550e+06, gap 0.9154%

